(set-info :smt-lib-version 2.6)
(set-logic ALL)
(set-info :source |
Generated on: 2026-06-22
Generator: ppTransSmt github.com/CLEARSY/pptranspog
Application: Discharging a proof obligation generated by aTelierB from an anonymized B machine
Target solver: CVC5 (--mbqi --enum-inst)
Time limit: 1200.0
|)
(set-info :license "www.gnu.org/licenses/gpl-3.0.en.html")
(set-info :category "industrial")
(set-info :status unknown)

(set-option :print-success false)
; Prelude
(declare-sort P 1)
(declare-fun mem0 (Int (P Int)) Bool)
(declare-sort C 2)

(declare-fun divB (Int Int) Int)
(assert (!
 (forall ((x Int) (y Int))
  (!
   (and
    (=> (and (<= 0 x) (< 0 y)) (= (divB x y) (div x y)))
    (=> (and (<= x 0) (< 0 y)) (= (divB x y) (- 0 (div (- 0 x) y))))
    (=> (and (<= 0 x) (< y 0)) (= (divB x y) (div x y)))
    (=> (and (<= x 0) (< y 0)) (= (divB x y) (div (- 0 x) (- 0 y))))
   )
   :pattern ((divB x y))
  )
 )
 :named |divB_axiom|))


(declare-fun iexp (Int Int) Int)
(assert (!
 (forall ((x Int))
  (!
   (=> (not (= x 0)) (= (iexp x 0) 1))
   :pattern ((iexp x 0))
  )
 )
 :named |iexp_axiom_1|
))
(assert (!
 (forall ((x Int) (n Int))
  (!
   (=> (>= n 1) (= (iexp x n) (* x (iexp x (- n 1)))))
   :pattern ((iexp x n))
  )
 )
 :named |iexp_axiom_2|))

(define-fun MinInt () Int (- 2147483648))
(define-fun MaxInt () Int 2147483647)
; Global declarations
(declare-fun g_s0_0 () (P Int))
(declare-fun g_s10_10 () (P Int))
(declare-fun g_s11_11 () (P Int))
(declare-fun g_s12_12 () (P Int))
(declare-fun g_s13_13 () (P Int))
(declare-fun g_s14_14 () (P Int))
(declare-fun g_s15_15 () (P Int))
(declare-fun g_s16_16 () (P Int))
(declare-fun g_s17_17 () Int)
(declare-fun g_s18_18 () (P Int))
(declare-fun g_s19_19 () (P Int))
(declare-fun g_s1_1 () (P Int))
(declare-fun g_s20_20 () (P Int))
(declare-fun g_s21_21 () (P (P (C Int Int))))
(declare-fun g_s22_22 () (P (P (C Int Int))))
(declare-fun g_s23_23 () (P Int))
(declare-fun g_s24_24 () (P Int))
(declare-fun g_s25_25 () (P Int))
(declare-fun g_s26_26 () (P (C (C Int Int) Int)))
(declare-fun g_s29_27 () (P (C (C Int Int) Int)))
(declare-fun g_s2_2 () Int)
(declare-fun g_s30_28 () (P (C (C Int Int) Int)))
(declare-fun g_s31_29 () (P (C (C Int Int) Int)))
(declare-fun g_s3_3 () Int)
(declare-fun g_s4_4 () Int)
(declare-fun g_s5_5 () Int)
(declare-fun g_s6_6 () Int)
(declare-fun g_s7_7 () (P Int))
(declare-fun g_s8_8 () (P Int))
(declare-fun g_s9_9 () (P Int))
(declare-fun mem2 ( Int Int (P (C Int Int))) Bool)
(declare-fun mem3 ( (P (C Int Int)) (P (P (C Int Int)))) Bool)
(declare-fun mem4 ( Int Int Int (P (C (C Int Int) Int))) Bool)
; Defines
(define-fun |def_aprp_0| () Bool (and  (not (forall ( (x_3 Int) ) (= (mem0 x_3 g_s0_0) false))) (and  (forall ( (x_6 Int) ) (=> (mem0 x_6 g_s0_0) true)) (exists ( (x_4 Int) (x_5 (P (C Int Int))) ) (and (and (exists ( (x_7 (P (C Int Int))) ) (and (forall ( (x_8 Int) (x_9 Int) ) (= (mem2 x_9 x_8 x_7) (mem2 x_9 x_8 x_5))) (forall ( (x_10 Int) (x_11 Int) (x_12 Int) ) (=> (and  (mem2 x_10 x_11 x_7) (mem2 x_10 x_12 x_7)) (= x_11 x_12))) (forall ( (x_13 Int) ) (= (and (>= x_13 1) (<= x_13 x_4)) (exists ( (x_14 Int) ) (mem2 x_13 x_14 x_7)))) (forall ( (x_15 Int) ) (=> (exists ( (x_16 Int) ) (mem2 x_16 x_15 x_7)) (mem0 x_15 g_s0_0))))) (forall ( (x_17 Int) ) (=> (mem0 x_17 g_s0_0) (exists ( (x_18 Int) ) (mem2 x_18 x_17 x_5))))) (forall ( (x_19 Int) (x_20 Int) (x_21 Int) ) (=> (and  (mem2 x_20 x_19 x_5) (mem2 x_21 x_19 x_5)) (= x_20 x_21))))))))
(define-fun |def_aprp_1| () Bool (and (forall ( (x_22 Int) ) (= (mem0 x_22 g_s1_1) (or  (= x_22 g_s2_2) (= x_22 g_s3_3) (= x_22 g_s4_4) (= x_22 g_s5_5) (= x_22 g_s6_6)))) (distinct g_s2_2 g_s3_3 g_s4_4 g_s5_5 g_s6_6)))
(define-fun |def_aprp_2| () Bool (forall ( (x_23 Int) ) (= (mem0 x_23 g_s7_7) (and (>= x_23 0) (<= x_23 255)))))
(define-fun |def_aprp_3| () Bool (forall ( (x_24 Int) ) (= (mem0 x_24 g_s8_8) (and (>= x_24 0) (<= x_24 65535)))))
(define-fun |def_aprp_4| () Bool (forall ( (x_25 Int) ) (= (mem0 x_25 g_s9_9) (and (>= x_25 0) (<= x_25 16777215)))))
(define-fun |def_aprp_5| () Bool (forall ( (x_26 Int) ) (= (mem0 x_26 g_s10_10) (and (>= x_26 0) (<= x_26 2147483647)))))
(define-fun |def_aprp_6| () Bool (forall ( (x_27 Int) ) (= (mem0 x_27 g_s11_11) (and (>= x_27 1) (<= x_27 255)))))
(define-fun |def_aprp_7| () Bool (forall ( (x_28 Int) ) (= (mem0 x_28 g_s12_12) (and (>= x_28 1) (<= x_28 65535)))))
(define-fun |def_aprp_8| () Bool (forall ( (x_29 Int) ) (= (mem0 x_29 g_s13_13) (and (>= x_29 1) (<= x_29 16777215)))))
(define-fun |def_aprp_9| () Bool (forall ( (x_30 Int) ) (= (mem0 x_30 g_s14_14) (and (>= x_30 1) (<= x_30 2147483647)))))
(define-fun |def_aprp_10| () Bool (forall ( (x_31 Int) ) (= (mem0 x_31 g_s15_15) (mem0 x_31 g_s9_9))))
(define-fun |def_aprp_11| () Bool (forall ( (x_32 Int) ) (=> (mem0 x_32 g_s16_16) (mem0 x_32 g_s0_0))))
(define-fun |def_aprp_12| () Bool (mem0 g_s17_17 g_s0_0))
(define-fun |def_aprp_13| () Bool (forall ( (x_33 Int) ) (= (mem0 x_33 g_s16_16) (and (mem0 x_33 g_s0_0) (not (= x_33 g_s17_17))))))
(define-fun |def_aprp_14| () Bool (forall ( (x_34 Int) ) (= (mem0 x_34 g_s18_18) (mem0 x_34 g_s9_9))))
(define-fun |def_aprp_15| () Bool (forall ( (x_35 Int) ) (= (mem0 x_35 g_s19_19) (and (>= x_35 0) (<= x_35 6)))))
(define-fun |def_aprp_16| () Bool (forall ( (x_36 Int) ) (= (mem0 x_36 g_s20_20) (and (>= x_36 0) (<= x_36 6)))))
(define-fun |def_aprp_17| () Bool (forall ( (x_37 (P (C Int Int))) ) (= (mem3 x_37 g_s21_21) (exists ( (x_38 (P (C Int Int))) ) (and (forall ( (x_39 Int) (x_40 Int) ) (= (mem2 x_40 x_39 x_38) (mem2 x_40 x_39 x_37))) (forall ( (x_41 Int) (x_42 Int) (x_43 Int) ) (=> (and  (mem2 x_41 x_42 x_38) (mem2 x_41 x_43 x_38)) (= x_42 x_43))) (forall ( (x_44 Int) ) (= (mem0 x_44 g_s19_19) (exists ( (x_45 Int) ) (mem2 x_44 x_45 x_38)))) (forall ( (x_46 Int) ) (=> (exists ( (x_47 Int) ) (mem2 x_47 x_46 x_38)) (mem0 x_46 g_s8_8))))))))
(define-fun |def_aprp_18| () Bool (forall ( (x_48 (P (C Int Int))) ) (= (mem3 x_48 g_s22_22) (exists ( (x_49 (P (C Int Int))) ) (and (forall ( (x_50 Int) (x_51 Int) ) (= (mem2 x_51 x_50 x_49) (mem2 x_51 x_50 x_48))) (forall ( (x_52 Int) (x_53 Int) (x_54 Int) ) (=> (and  (mem2 x_52 x_53 x_49) (mem2 x_52 x_54 x_49)) (= x_53 x_54))) (forall ( (x_55 Int) ) (= (mem0 x_55 g_s20_20) (exists ( (x_56 Int) ) (mem2 x_55 x_56 x_49)))) (forall ( (x_57 Int) ) (=> (exists ( (x_58 Int) ) (mem2 x_58 x_57 x_49)) (mem0 x_57 g_s8_8))))))))
(define-fun |def_aprp_19| () Bool (forall ( (x_59 Int) ) (= (mem0 x_59 g_s23_23) (mem0 x_59 g_s7_7))))
(define-fun |def_aprp_20| () Bool (forall ( (x_60 Int) ) (= (mem0 x_60 g_s24_24) (mem0 x_60 g_s8_8))))
(define-fun |def_aprp_21| () Bool (forall ( (x_61 Int) ) (= (mem0 x_61 g_s25_25) (and (>= x_61 0) (<= x_61 1000)))))
(define-fun |def_aprp_22| () Bool (exists ( (x_62 (P (C (C Int Int) Int))) ) (and (forall ( (x_63 Int) (x_64 Int) (x_65 Int) ) (= (mem4 x_65 x_64 x_63 x_62) (mem4 x_65 x_64 x_63 g_s26_26))) (forall ( (x_66 Int) (x_67 Int) (x_68 Int) (x_69 Int) ) (=> (and  (mem4 x_67 x_66 x_68 x_62) (mem4 x_67 x_66 x_69 x_62)) (= x_68 x_69))) (forall ( (x_70 Int) (x_71 Int) ) (= (and (mem0 x_71 g_s10_10) (mem0 x_70 g_s10_10)) (exists ( (x_72 Int) ) (mem4 x_71 x_70 x_72 x_62)))) (forall ( (x_73 Int) ) (=> (exists ( (x_74 Int) (x_75 Int) ) (mem4 x_75 x_74 x_73 x_62)) (mem0 x_73 g_s10_10))))))
(define-fun |def_aprp_23| () Bool (forall ( (x_76 Int) (x_77 Int) (x_78 Int) ) (= (mem4 x_78 x_77 x_76 g_s26_26) (and  (and  (mem0 x_78 g_s10_10) (mem0 x_77 g_s10_10)) (= x_76 (+ x_78 (mod x_77 (iexp 2 32))))))))
(define-fun |def_aprp_24| () Bool (exists ( (x_79 (P (C (C Int Int) Int))) ) (and (forall ( (x_80 Int) (x_81 Int) (x_82 Int) ) (= (mem4 x_82 x_81 x_80 x_79) (mem4 x_82 x_81 x_80 g_s29_27))) (forall ( (x_83 Int) (x_84 Int) (x_85 Int) (x_86 Int) ) (=> (and  (mem4 x_84 x_83 x_85 x_79) (mem4 x_84 x_83 x_86 x_79)) (= x_85 x_86))) (forall ( (x_87 Int) (x_88 Int) ) (= (and (mem0 x_88 g_s10_10) (mem0 x_87 g_s10_10)) (exists ( (x_89 Int) ) (mem4 x_88 x_87 x_89 x_79)))) (forall ( (x_90 Int) ) (=> (exists ( (x_91 Int) (x_92 Int) ) (mem4 x_92 x_91 x_90 x_79)) (mem0 x_90 g_s10_10))))))
(define-fun |def_aprp_25| () Bool (forall ( (x_93 Int) (x_94 Int) (x_95 Int) ) (= (mem4 x_95 x_94 x_93 g_s29_27) (and  (and  (mem0 x_95 g_s10_10) (mem0 x_94 g_s10_10)) (or  (and (= (>= x_95 x_94) true) (= x_93 (- x_95 x_94))) (and (= (>= x_95 x_94) false) (= x_93 (+ (- (iexp 2 32) x_95) x_94))))))))
(define-fun |def_aprp_26| () Bool (exists ( (x_96 (P (C (C Int Int) Int))) ) (and (forall ( (x_97 Int) (x_98 Int) (x_99 Int) ) (= (mem4 x_99 x_98 x_97 x_96) (mem4 x_99 x_98 x_97 g_s30_28))) (forall ( (x_100 Int) (x_101 Int) (x_102 Int) (x_103 Int) ) (=> (and  (mem4 x_101 x_100 x_102 x_96) (mem4 x_101 x_100 x_103 x_96)) (= x_102 x_103))) (forall ( (x_104 Int) (x_105 Int) ) (= (and (mem0 x_105 g_s10_10) (mem0 x_104 g_s10_10)) (exists ( (x_106 Int) ) (mem4 x_105 x_104 x_106 x_96)))) (forall ( (x_107 Int) ) (=> (exists ( (x_108 Int) (x_109 Int) ) (mem4 x_109 x_108 x_107 x_96)) (mem0 x_107 g_s10_10))))))
(define-fun |def_aprp_27| () Bool (forall ( (x_110 Int) (x_111 Int) (x_112 Int) ) (= (mem4 x_112 x_111 x_110 g_s30_28) (and  (and  (mem0 x_112 g_s10_10) (mem0 x_111 g_s10_10)) (= x_110 (divB x_112 x_111))))))
(define-fun |def_aprp_28| () Bool (exists ( (x_113 (P (C (C Int Int) Int))) ) (and (forall ( (x_114 Int) (x_115 Int) (x_116 Int) ) (= (mem4 x_116 x_115 x_114 x_113) (mem4 x_116 x_115 x_114 g_s31_29))) (forall ( (x_117 Int) (x_118 Int) (x_119 Int) (x_120 Int) ) (=> (and  (mem4 x_118 x_117 x_119 x_113) (mem4 x_118 x_117 x_120 x_113)) (= x_119 x_120))) (forall ( (x_121 Int) (x_122 Int) ) (= (and (mem0 x_122 g_s10_10) (mem0 x_121 g_s10_10)) (exists ( (x_123 Int) ) (mem4 x_122 x_121 x_123 x_113)))) (forall ( (x_124 Int) ) (=> (exists ( (x_125 Int) (x_126 Int) ) (mem4 x_126 x_125 x_124 x_113)) (mem0 x_124 g_s10_10))))))
(define-fun |def_aprp_29| () Bool (forall ( (x_127 Int) (x_128 Int) (x_129 Int) ) (= (mem4 x_129 x_128 x_127 g_s31_29) (and  (and  (mem0 x_129 g_s10_10) (mem0 x_128 g_s10_10)) (= x_127 (mod (* x_129 x_128) (iexp 2 32)))))))
(define-fun |def_imlprp_0| () Bool (forall ( (x_130 Int) ) (= (mem0 x_130 g_s7_7) (and (>= x_130 0) (<= x_130 255)))))
(define-fun |def_imlprp_1| () Bool (forall ( (x_131 Int) ) (= (mem0 x_131 g_s8_8) (and (>= x_131 0) (<= x_131 65535)))))
(define-fun |def_imlprp_2| () Bool (forall ( (x_132 Int) ) (= (mem0 x_132 g_s9_9) (and (>= x_132 0) (<= x_132 16777215)))))
(define-fun |def_imlprp_3| () Bool (forall ( (x_133 Int) ) (= (mem0 x_133 g_s10_10) (and (>= x_133 0) (<= x_133 2147483647)))))
(define-fun |def_imlprp_4| () Bool (forall ( (x_134 Int) ) (= (mem0 x_134 g_s11_11) (and (>= x_134 1) (<= x_134 255)))))
(define-fun |def_imlprp_5| () Bool (forall ( (x_135 Int) ) (= (mem0 x_135 g_s12_12) (and (>= x_135 1) (<= x_135 65535)))))
(define-fun |def_imlprp_6| () Bool (forall ( (x_136 Int) ) (= (mem0 x_136 g_s13_13) (and (>= x_136 1) (<= x_136 16777215)))))
(define-fun |def_imlprp_7| () Bool (forall ( (x_137 Int) ) (= (mem0 x_137 g_s14_14) (and (>= x_137 1) (<= x_137 2147483647)))))
(define-fun |def_imlprp_8| () Bool (= g_s17_17 0))
(define-fun |def_imlprp_9| () Bool (forall ( (x_138 Int) ) (= (mem0 x_138 g_s15_15) (mem0 x_138 g_s9_9))))
(define-fun |def_imlprp_10| () Bool (forall ( (x_139 Int) ) (= (mem0 x_139 g_s0_0) (mem0 x_139 g_s8_8))))
(define-fun |def_imlprp_11| () Bool (forall ( (x_140 Int) ) (= (mem0 x_140 g_s16_16) (mem0 x_140 g_s12_12))))
; PO group s32
; PO 8 in group s32
(assert (! (not (forall ( (x_141 Int) ) (= (mem0 x_141 g_s23_23) (and (>= x_141 0) (<= x_141 255))))) :named goal))
(check-sat)
(exit)
